results/x-long/X-n162-k11.vrp_seed-33.out
14148	1338
