results/x-long/X-n162-k11.vrp_seed-33.vrp.sol
Route #1: 29 10 105 144 119 141 115 156 59
Route #2: 150 90 145 68 58 38 73 11 48 26 28 152 45 50
Route #3: 72 135 159 147 121 85 160 84 122 107 133 138 126 139 15
Route #4: 78 22 34 7 44 75 33 3 19 18 64 12 51 42 8
Route #5: 161 77 97 117 27 9 21 60 55 1 14 89 149 17 127
Route #6: 79 20 67 62 114 95 129 96 88 106 31 140 154 111 80
Route #7: 136 91 158 108 137 39 146 151 101 4 87 132 93 125 92 155
Route #8: 74 81 120 5 16 32 57 131 37 71 13 6 49 24 23
Route #9: 54 76 41 61 46 69 65 70 113 63 104 83 98 47 25
Route #10: 52 116 102 142 43 123 56 66 100 94 36 35 99 130 86 53
Route #11: 143 153 110 128 124 134 148 109 2 82 118 30 157 112 40 103
Cost 14148.000000